* interaction_screened.inp
* By Sonja Schwarzl & Stefan Fischer, 17/06/2008
* 

STREAM generate.str
STREAM settings1.str
STREAM settings2.str
STREAM initialize.str

     ! Compute only electrostatics :
SKIP ALL EXCL ELEC
 
     ! No bonded-exclusions (NBXMOD= -1 instead of 5),  cutoff :
ENER  NBXMOD -1  VATOM ATOM  EPS 1.0  E14FAC 1.0  @ELECTR -
      @UVFUNCTION @UFUNCTION CTONNB @UCTONNB CTOFNB @UCTOFNB CUTNB -
      @UCUTNB WMIN @UWMIN    

OPEN UNIT 20 WRITE FORM NAME @OUTPUT
WRITE TITLE UNIT 20
*# INTERCTION ENERGIES IN SOLUTION AND IN VACUUM (UNSCALED AND SCALED)
*# GROUP     distance     E^solv      E^vac     E^NUCS
*


DEFIne GROUP SELE targetregion END

! calculate potential and store to SCA9
STREam "./pbeq.str"

! loop over all residues that do not belong to the target atoms and 
! calculate interaction energies with PBEQ and with the Coulomb law with
! unmodified and scaled charges

STREAm loop_inter.str

STOP
