 $CONTRL COORD=CART NOSYM=1 NPRINT=-5  
         SCFTYP=RHF ICHARG=0           
         RunTyp=gradient
 $END
 $BASIS  GBASIS=STO NGAUSS=3
 $END
 $SCF    DIRSCF=.True.  $END          
 $DATA

 $END

