$rem
exchange              hf
basis                 sto-3g
qm_mm                 true      
jobtype               force
symmetry              off       
sym_ignore            true      
print_input           false     
$end

$molecule
0 1
$end

