$comment
qchem control file needed for the 
alanine_qchem.inp test case
$end

$rem
exchange              HF
basis                 sto-3g
qm_mm                 true
jobtype               force
symmetry              off
sym_ignore            true
print_input           false
qmmm_print            true
$end

$molecule
0 1
$end

